0 92 27 66 57 60 24 80 72 67 84 38 29 28 2 45 33 11 85 26 19 61 59 90 97 31 10 58 20 71 9 89 48 74 96 55 7 79 88 0
1 39 72 67 84 38 29 28 2 45 33 11 85 26 19 61 59 90 97 31 10 58 20 71 9 89 48 74 96 55 7 0 92 27 66 57 60 24 80 68 1
2 28 45 33 11 85 26 19 61 59 90 97 31 10 58 20 71 9 89 48 74 96 55 7 0 92 27 66 57 60 24 80 72 67 84 38 29 4 36 75 94 2
3 96 55 7 0 92 27 66 57 60 24 80 72 67 84 38 29 28 2 45 33 11 85 26 19 61 59 90 97 31 10 58 20 71 9 89 48 74 52 69 93 21 87 78 37 98 3
4 36 38 84 67 72 68 39 53 4
5 48 89 9 83 37 98 5
6 8 56 19 85 26 11 61 59 90 97 31 10 58 20 71 9 89 48 74 96 55 7 0 92 27 66 57 60 24 80 72 67 84 38 29 28 2 45 33 54 82 6
7 0 92 27 66 57 60 24 80 72 67 84 38 29 28 2 45 33 11 85 26 19 61 59 90 97 31 10 58 20 71 9 89 48 74 96 55 79 88 7
8 6 11 85 26 19 61 59 90 97 31 10 58 20 71 9 89 48 74 96 55 7 0 92 27 66 57 60 24 80 72 67 84 38 29 28 2 45 33 54 82 56 86 8
9 89 48 74 96 55 7 0 92 27 66 57 60 24 80 72 67 84 38 29 28 2 45 33 11 85 26 19 61 59 90 97 31 10 58 20 71 73 9
10 31 90 97 22 61 85 26 11 19 8 6 56 86 24 80 72 67 84 38 29 28 2 45 33 54 82 10
11 85 26 19 61 59 90 97 31 10 58 20 71 9 89 48 74 96 55 7 0 92 27 66 57 60 24 80 72 67 84 38 29 28 2 45 33 8 6 56 86 11
12 75 94 4 36 38 84 67 72 68 39 53 12
13 2 28 45 33 11 85 26 19 61 59 90 97 31 10 58 20 71 9 89 48 74 96 55 7 0 92 27 66 57 60 24 80 72 67 84 38 29 4 36 75 94 13
14 10 31 90 97 22 61 85 26 11 19 8 6 56 86 24 80 72 67 84 38 29 28 2 45 33 54 82 14
15 69 52 78 89 48 9 83 37 98 15
16 10 31 90 97 22 61 85 26 11 19 8 6 56 86 24 80 72 67 84 38 29 28 2 45 33 54 82 16
17 52 69 93 21 87 78 89 48 9 83 37 98 17
18 52 69 93 21 87 78 89 48 9 83 37 98 18
19 85 26 11 8 6 56 61 59 90 97 31 10 58 20 71 9 89 48 74 96 55 7 0 92 27 66 57 60 24 80 72 67 84 38 29 28 2 45 33 54 82 19
20 58 10 31 90 97 22 61 85 26 11 19 8 6 56 86 24 80 72 67 84 38 29 28 2 45 33 54 82 20
21 69 52 78 89 48 9 83 37 98 21
22 90 97 31 10 58 20 71 9 89 48 74 96 55 7 0 92 27 66 57 60 24 80 72 67 84 38 29 28 2 45 33 11 85 26 19 61 59 34 22
23 37 98 23
24 80 72 67 84 38 29 28 2 45 33 11 85 26 19 61 59 90 97 31 10 58 20 71 9 89 48 74 96 55 7 0 92 27 66 57 60 68 39 53 24
25 64 69 52 78 89 48 9 83 37 98 25
26 85 19 11 8 6 56 61 59 90 97 31 10 58 20 71 9 89 48 74 96 55 7 0 92 27 66 57 60 24 80 72 67 84 38 29 28 2 45 33 54 82 26
27 92 66 57 60 24 80 72 67 84 38 29 28 2 45 33 11 85 26 19 61 59 90 97 31 10 58 20 71 9 89 48 74 96 55 7 0 46 27
28 2 45 33 11 85 26 19 61 59 90 97 31 10 58 20 71 9 89 48 74 96 55 7 0 92 27 66 57 60 24 80 72 67 84 38 29 4 36 75 94 28
29 38 84 67 72 68 39 53 29
30 79 55 96 74 52 69 93 21 87 78 89 48 9 83 37 98 30
31 10 90 97 22 61 85 26 11 19 8 6 56 86 24 80 72 67 84 38 29 28 2 45 33 54 82 31
32 75 94 4 36 38 84 67 72 68 39 53 32
33 28 2 45 42 70 99 33
34 85 26 11 19 61 59 90 97 31 10 58 20 71 9 89 48 74 96 55 7 0 92 27 66 57 60 24 80 72 67 84 38 29 28 2 45 33 8 6 56 86 34
35 98 37 9 89 48 74 96 55 7 0 92 27 66 57 60 24 80 72 67 84 38 29 28 2 45 33 11 85 26 19 61 59 90 97 31 10 58 20 71 73 35
36 4 38 84 67 72 68 39 53 36
37 98 37
38 84 67 72 68 39 53 38
39 72 67 84 38 29 28 2 45 33 11 85 26 19 61 59 90 97 31 10 58 20 71 9 89 48 74 96 55 7 0 92 27 66 57 60 24 80 68 39
40 70 99 2 28 45 33 11 85 26 19 61 59 90 97 31 10 58 20 71 9 89 48 74 96 55 7 0 92 27 66 57 60 24 80 72 67 84 38 29 4 36 75 94 40
41 7 0 92 27 66 57 60 24 80 72 67 84 38 29 28 2 45 33 11 85 26 19 61 59 90 97 31 10 58 20 71 9 89 48 74 96 55 79 88 41
42 2 28 45 33 11 85 26 19 61 59 90 97 31 10 58 20 71 9 89 48 74 96 55 7 0 92 27 66 57 60 24 80 72 67 84 38 29 4 36 75 94 42
43 72 67 84 38 29 28 2 45 33 11 85 26 19 61 59 90 97 31 10 58 20 71 9 89 48 74 96 55 7 0 92 27 66 57 60 24 80 68 39 53 43
44 90 97 31 10 58 20 71 9 89 48 74 96 55 7 0 92 27 66 57 60 24 80 72 67 84 38 29 28 2 45 33 11 85 26 19 61 59 34 44
45 2 28 33 11 85 26 19 61 59 90 97 31 10 58 20 71 9 89 48 74 96 55 7 0 92 27 66 57 60 24 80 72 67 84 38 29 4 36 75 94 45
46 90 97 31 10 58 20 71 9 89 48 74 96 55 7 0 92 27 66 57 60 24 80 72 67 84 38 29 28 2 45 33 11 85 26 19 61 59 34 46
47 99 70 2 28 45 33 11 85 26 19 61 59 90 97 31 10 58 20 71 9 89 48 74 96 55 7 0 92 27 66 57 60 24 80 72 67 84 38 29 4 36 75 94 47
48 89 9 83 37 98 48
49 72 67 84 38 29 28 2 45 33 11 85 26 19 61 59 90 97 31 10 58 20 71 9 89 48 74 96 55 7 0 92 27 66 57 60 24 80 68 39 53 49
50 60 24 80 72 67 84 38 29 28 2 45 33 11 85 26 19 61 59 90 97 31 10 58 20 71 9 89 48 74 96 55 7 0 92 27 66 57 68 39 53 50
51 4 36 38 84 67 72 68 39 53 51
52 69 93 21 87 78 89 48 9 83 37 98 52
53 39 72 67 84 38 29 28 2 45 33 11 85 26 19 61 59 90 97 31 10 58 20 71 9 89 48 74 96 55 7 0 92 27 66 57 60 24 80 68 53
54 11 85 26 19 61 59 90 97 31 10 58 20 71 9 89 48 74 96 55 7 0 92 27 66 57 60 24 80 72 67 84 38 29 28 2 45 33 8 6 56 86 54
55 96 74 52 69 93 21 87 78 89 48 9 83 37 98 55
56 8 6 11 85 26 19 61 59 90 97 31 10 58 20 71 9 89 48 74 96 55 7 0 92 27 66 57 60 24 80 72 67 84 38 29 28 2 45 33 54 82 56
57 92 27 66 7 0 48 89 9 83 37 98 57
58 20 10 31 90 97 22 61 85 26 11 19 8 6 56 86 24 80 72 67 84 38 29 28 2 45 33 54 82 58
59 61 85 26 11 19 8 6 56 86 24 80 72 67 84 38 29 28 2 45 33 54 82 59
60 24 80 72 67 84 38 29 28 2 45 33 11 85 26 19 61 59 90 97 31 10 58 20 71 9 89 48 74 96 55 7 0 92 27 66 57 68 39 53 60
61 85 26 11 19 8 6 56 86 24 80 72 67 84 38 29 28 2 45 33 54 82 61
62 48 89 9 83 37 98 62
63 39 72 67 84 38 29 28 2 45 33 11 85 26 19 61 59 90 97 31 10 58 20 71 9 89 48 74 96 55 7 0 92 27 66 57 60 24 80 68 63
64 25 69 52 78 89 48 9 83 37 98 64
65 69 52 78 89 48 9 83 37 98 65
66 27 92 0 7 96 55 79 88 66
67 84 38 29 28 2 45 33 11 85 26 19 61 59 90 97 31 10 58 20 71 9 89 48 74 96 55 7 0 92 27 66 57 60 24 80 72 68 39 53 67
68 72 67 84 38 29 28 2 45 33 11 85 26 19 61 59 90 97 31 10 58 20 71 9 89 48 74 96 55 7 0 92 27 66 57 60 24 80 39 53 68
69 52 78 89 48 9 83 37 98 69
70 99 2 28 45 33 11 85 26 19 61 59 90 97 31 10 58 20 71 9 89 48 74 96 55 7 0 92 27 66 57 60 24 80 72 67 84 38 29 4 36 75 94 70
71 20 58 10 31 90 97 22 61 85 26 11 19 8 6 56 86 24 80 72 67 84 38 29 28 2 45 33 54 82 71
72 67 84 38 29 28 2 45 33 11 85 26 19 61 59 90 97 31 10 58 20 71 9 89 48 74 96 55 7 0 92 27 66 57 60 24 80 68 39 53 72
73 58 20 10 31 90 97 22 61 85 26 11 19 8 6 56 86 24 80 72 67 84 38 29 28 2 45 33 54 82 73
74 96 55 7 0 92 27 66 57 60 24 80 72 67 84 38 29 28 2 45 33 11 85 26 19 61 59 90 97 31 10 58 20 71 9 89 48 52 69 93 21 87 78 37 98 74
75 94 4 36 38 84 67 72 68 39 53 75
76 61 85 26 11 19 8 6 56 86 24 80 72 67 84 38 29 28 2 45 33 54 82 76
77 4 36 38 84 67 72 68 39 53 77
78 52 69 93 21 87 15 78
79 55 96 74 52 69 93 21 87 78 89 48 9 83 37 98 79
80 24 60 68 72 67 84 38 29 28 2 45 33 11 85 26 19 61 59 90 97 31 10 58 20 71 9 89 48 74 96 55 7 0 92 27 66 57 80
81 94 75 4 36 38 84 67 72 68 39 53 81
82 11 85 26 19 61 59 90 97 31 10 58 20 71 9 89 48 74 96 55 7 0 92 27 66 57 60 24 80 72 67 84 38 29 28 2 45 33 8 6 56 86 82
83 9 89 48 74 96 55 7 0 92 27 66 57 60 24 80 72 67 84 38 29 28 2 45 33 11 85 26 19 61 59 90 97 31 10 58 20 71 73 83
84 67 72 68 39 53 84
85 26 11 19 61 59 90 97 31 10 58 20 71 9 89 48 74 96 55 7 0 92 27 66 57 60 24 80 72 67 84 38 29 28 2 45 33 8 6 56 86 85
86 8 6 11 85 26 19 61 59 90 97 31 10 58 20 71 9 89 48 74 96 55 7 0 92 27 66 57 60 24 80 72 67 84 38 29 28 2 45 33 54 82 56 86
87 52 69 93 21 78 89 48 9 83 37 98 87
88 79 55 96 74 52 69 93 21 87 78 89 48 9 83 37 98 88
89 48 9 83 37 98 89
90 97 31 10 58 20 71 9 89 48 74 96 55 7 0 92 27 66 57 60 24 80 72 67 84 38 29 28 2 45 33 11 85 26 19 61 59 34 90
91 7 0 92 27 66 57 60 24 80 72 67 84 38 29 28 2 45 33 11 85 26 19 61 59 90 97 31 10 58 20 71 9 89 48 74 96 55 79 88 91
92 27 66 57 60 24 80 72 67 84 38 29 28 2 45 33 11 85 26 19 61 59 90 97 31 10 58 20 71 9 89 48 74 96 55 7 0 46 92
93 69 52 78 89 48 9 83 37 98 93
94 75 4 36 38 84 67 72 68 39 53 94
95 38 84 67 72 68 39 53 95
96 55 7 0 92 27 66 57 60 24 80 72 67 84 38 29 28 2 45 33 11 85 26 19 61 59 90 97 31 10 58 20 71 9 89 48 74 52 69 93 21 87 78 37 98 96
97 90 31 10 58 20 71 9 89 48 74 96 55 7 0 92 27 66 57 60 24 80 72 67 84 38 29 28 2 45 33 11 85 26 19 61 59 34 97
98 37 9 89 48 74 96 55 7 0 92 27 66 57 60 24 80 72 67 84 38 29 28 2 45 33 11 85 26 19 61 59 90 97 31 10 58 20 71 73 98
99 70 2 28 45 33 11 85 26 19 61 59 90 97 31 10 58 20 71 9 89 48 74 96 55 7 0 92 27 66 57 60 24 80 72 67 84 38 29 4 36 75 94 99
